387,257
617,605
910,721
850,575
977,452
921,406
1020,67
778,336
850,237
1166,249
1221,406
1162,651
708,321
660,385
681,376
622,397
738,424
778,476
751,503
733,478
414,542
501,406
171,406
584,336
646,358
654,321
681,226
704,258
762,246
723,364
639,140
570,64
450,-48
540,212
699,524
417,42
382,-6
626,577
